n_res = 5;
rcap = [19, 20, 18, 107, 117];
rtype = [1, 1, 1, 2, 2];
n_tasks = 16;
modes = [ {1, 2, 3}, {4, 5, 6}, {7, 8, 9}, {10, 11, 12}, {13, 14, 15}, {16, 17, 18}, {19, 20, 21}, {22, 23, 24}, {25, 26, 27}, {28, 29, 30}, {31, 32, 33}, {34, 35, 36}, {37, 38, 39}, {40, 41, 42}, {43, 44, 45}, {46, 47, 48} ];
succ = [ {4}, {12, 13}, {5, 6, 9}, {5, 6, 12}, {7, 8, 13}, {7, 13}, {10, 15}, {10}, {11, 15, 16}, {14, 16}, {12}, {14}, {14, 15, 16}, {}, {}, {} ];
n_opt = 48;
dur = [1, 2, 9, 1, 5, 5, 1, 2, 5, 6, 9, 10, 5, 7, 9, 1, 6, 10, 3, 5, 5, 4, 5, 9, 2, 5, 6, 2, 8, 10, 5, 7, 8, 1, 4, 6, 3, 7, 10, 2, 4, 8, 1, 1, 9, 4, 6, 8];
rreq = [|  2,  2,  2,  6,  2,  2,  6,  5,  3,  8,  7,  7,  7,  6,  3,  7,  7,  7,  4,  3,  1,  3,  2,  1,  7,  6,  5,  9,  8,  8,  9,  8,  8,  3,  3,  2,  7,  7,  6,  5,  5,  4,  7, 10,  6,  5,  5,  4
        |  6,  5,  5,  8,  2,  3,  6,  6,  4,  3,  2,  2,  4,  3,  2,  4,  4,  4,  5,  2,  3,  8,  8,  7,  8,  8,  7,  3,  3,  3,  2,  2,  1,  9,  8,  3, 10,  9,  9,  3,  3,  3,  8,  8,  1,  8,  7,  5
        | 10,  8,  8,  2,  2,  1,  7,  7,  1,  4,  4,  4,  7,  4,  3,  9,  5,  1,  6,  4,  5,  6,  6,  4,  7,  6,  4, 10, 10, 10,  4,  3,  2,  6,  6,  6,  4,  4,  4, 10,  9,  9,  5,  4,  3,  7,  6,  5
        |  6,  5,  1, 10,  8,  8,  6,  5,  5,  7,  6,  6,  5,  4,  4,  7,  6,  6,  5,  4,  2,  3,  3,  2,  9,  7,  6,  4,  3,  2,  5,  5,  4,  9,  6,  4,  5,  4,  3, 10,  9,  9,  9,  9,  5,  7,  5,  3
        |  7,  4,  2,  5,  4,  4,  6,  5,  5,  8,  4,  2,  7,  6,  4,  6,  4,  1,  9,  8,  8,  7,  4,  4,  9,  8,  4,  7,  7,  7,  4,  2,  2, 10, 10, 10,  9,  9,  9,  9,  9,  8,  6,  5,  3,  8,  7,  3 |];
